81 121
145 22
84 166
140 140
166 124
129 19
91 111
98 78
35 114
191 149
38 79
57 112
6 105
34 49
103 162
87 80
124 185
148 19
127 80
183 171
49 118
186 124
123 192
62 62
142 75
5 137
98 46
98 74
186 2
137 107
122 102
197 123
